\ENCODING=ISO-8859-1
\Problem name: 

Minimize
 obj: 609.438132238675 t0 + 379.147119190734 t1 - 399.147119190734 t2
      + 135.497361090749 t3 - 155.497361090749 t4 - 10 t5 + 170.613179885647 t6
      - 190.613179885647 t7 - 10 t8 - 10 t9 - 207.164272100865 t10 - 10 t11
      - 10 t12 - 10 t13 - 10 t14 + 365.73926110541 t15 - 323.955065239701 t16
      - 315.483066998974 t17 - 10 t18 - 10 t19 - 10 t20 + 259.409544055124 t21
      - 279.409544055124 t22 - 10 t23 + 459.594267702683 t24 - 10 t25
      - 282.429995601818 t26 - 10 t27 + 200.54757366955 t28
      - 220.54757366955 t29 - 10 t30 - 249.524263304501 t31
      - 146.214997800909 t32 + 196.397522357425 t33 - 216.397522357425 t34
      - 10 t35 + 138.616038704002 t36 - 158.616038704002 t37 - 10 t38
      + 299.706787861017 t39 - 319.706787861017 t40 - 10 t41
      + 123.120876704296 t42 - 143.120876704296 t43 - 10 t44 - 20 t45
      + 52.245271954259 t46 - 92.245271954259 t47 + 100.744392317842 t48
      - 140.744392317842 t49 - 20 t50 + 261.736915408298 t51
      - 202.67592728339 t52 - 119.060988124908 t53 + 66.6845037384548 t54
      + 54.3080193520012 t55 - 20 t56 + 76.998240727166 t57 - 20 t58 - 20 t59
      + 211.224160680252 t60 + 8.8293505351121 t61 - 280.053511215365 t62
      + 106.932634511069 t63 - 146.932634511069 t64 - 20 t65
      + 171.982847089869 t66 - 211.982847089869 t67 - 20 t68
      + 100.744392317842 t69 - 140.744392317842 t70 - 180.992523090456 t71
      - 20 t72 - 26.1882421932268 t73 - 110.809998533939 t74
      + 139.985705908225 t75 - 179.985705908225 t76 - 20 t77
      + 165.745491863363 t78 - 205.745491863363 t79 - 20 t80
      + 184.359331476323 t81 - 224.359331476323 t82 - 20 t83
      + 332.950813663685 t84 - 372.950813663685 t85 - 20 t86
      + 19.2167570737429 t87 + 251.398621902947 t88 - 330.61537897669 t89
      + 30 t90 + 30 t91 + 30 t92 + 30 t93 + 30 t94 + 30 t95 + 30 t96 + 30 t97
      + 30 t98 + 30 t99 + 30 t100 + 30 t101 + 30 t102 + 30 t103 + 30 t104
      + 30 t105 + 30 t106 + 30 t107 + 30 t108 + 30 t109 + 30 t110 + 30 t111
      + 30 t112 + 30 t113 + 30 t114 + 30 t115 + 30 t116 + 30 t117 + 30 t118
      + 30 t119 + 30 t120 + 30 t121 + 30 t122 + 30 t123 + 30 t124 + 30 t125
      + 30 t126 + 30 t127 + 30 t128 + 30 t129 + 30 t130 + 30 t131 + 30 t132
      + 30 t133 + 30 t134 + 10 t135 + 10 t136 + 10 t137 + 10 t138 + 10 t139
      + 10 t140 + 10 t141 + 10 t142 + 10 t143 + 10 t144 + 10 t145 + 10 t146
      + 10 t147 + 10 t148 + 10 t149 + 110 t150 + 110 t151 + 110 t152 + 110 t153
      + 110 t154 + 110 t155 + 110 t156 + 110 t157 + 110 t158 + 110 t159
      + 110 t160 + 110 t161 + 110 t162 + 110 t163 + 110 t164
      + [ 25.7843424717783 t0 ^2 - 51.5686849435567 t0 * t16
      + 13.4078580853247 t1 ^2 - 26.8157161706495 t1 * t2
      + 13.4078580853247 t2 ^2 + 3.0941210966134 t3 ^2
      - 6.1882421932268 t3 * t4 + 3.0941210966134 t4 ^2
      + 5.15686849435567 t6 ^2 - 10.3137369887113 t6 * t7
      + 5.15686849435567 t7 ^2 + 19.5961002785515 t10 ^2
      - 26.8157161706495 t10 * t24 - 12.3764843864536 t10 * t26
      + 13.4078580853247 t15 ^2 - 26.8157161706495 t15 * t31
      + 34.0353320627474 t16 ^2 - 16.5019791819381 t16 * t17
      + 8.25098959096907 t17 ^2 + 9.2823632898402 t21 ^2
      - 18.5647265796804 t21 * t22 + 9.2823632898402 t22 ^2
      + 13.4078580853247 t24 ^2 + 6.1882421932268 t26 ^2
      + 6.1882421932268 t28 ^2 - 12.3764843864536 t28 * t29
      + 6.1882421932268 t29 ^2 + 16.5019791819381 t31 ^2
      - 6.1882421932268 t31 * t32 + 3.0941210966134 t32 ^2
      + 5.15686849435567 t33 ^2 - 10.3137369887113 t33 * t34
      + 5.15686849435567 t34 ^2 + 4.12549479548453 t36 ^2
      - 8.25098959096907 t36 * t37 + 4.12549479548453 t37 ^2
      + 12.3764843864536 t39 ^2 - 24.7529687729072 t39 * t40
      + 12.3764843864536 t40 ^2 + 3.0941210966134 t42 ^2
      - 6.1882421932268 t42 * t43 + 3.0941210966134 t43 ^2
      + 2.06274739774227 t46 ^2 - 4.12549479548453 t46 * t47
      + 2.06274739774227 t47 ^2 + 3.0941210966134 t48 ^2
      - 6.1882421932268 t48 * t49 + 3.0941210966134 t49 ^2
      + 7.21961589209793 t51 ^2 - 14.4392317841959 t51 * t52
      + 9.2823632898402 t52 ^2 - 4.12549479548453 t52 * t53
      + 2.06274739774227 t53 ^2 + 2.06274739774227 t54 ^2
      - 4.12549479548453 t54 * t55 + 6.1882421932268 t55 ^2
      - 8.25098959096907 t55 * t71 + 2.06274739774227 t57 ^2
      - 4.12549479548453 t57 * t73 + 8.25098959096907 t60 ^2
      - 16.5019791819381 t60 * t61 + 14.4392317841959 t61 ^2
      - 12.3764843864536 t61 * t62 + 6.1882421932268 t62 ^2
      + 3.0941210966134 t63 ^2 - 6.1882421932268 t63 * t64
      + 3.0941210966134 t64 ^2 + 6.1882421932268 t66 ^2
      - 12.3764843864536 t66 * t67 + 6.1882421932268 t67 ^2
      + 3.0941210966134 t69 ^2 - 6.1882421932268 t69 * t70
      + 3.0941210966134 t70 ^2 + 4.12549479548453 t71 ^2
      + 4.12549479548453 t73 ^2 - 4.12549479548453 t73 * t74
      + 2.06274739774227 t74 ^2 + 5.15686849435567 t75 ^2
      - 10.3137369887113 t75 * t76 + 5.15686849435567 t76 ^2
      + 4.12549479548453 t78 ^2 - 8.25098959096907 t78 * t79
      + 4.12549479548453 t79 ^2 + 6.1882421932268 t81 ^2
      - 12.3764843864536 t81 * t82 + 6.1882421932268 t82 ^2
      + 9.2823632898402 t84 ^2 - 18.5647265796804 t84 * t85
      + 9.2823632898402 t85 ^2 + 1.03137369887113 t87 ^2
      - 2.06274739774227 t87 * t88 + 8.25098959096907 t88 ^2
      - 14.4392317841959 t88 * t89 + 7.21961589209793 t89 ^2 ] / 2
Subject To
 c0:   t0 - t45 <= -54
 c1:   t1 - t46 <= -47
 c2:   t2 - t47 <= -53
 c3:   t3 - t48 <= -55
 c4:   t4 - t49 <= -47
 c5:   t5 - t50 <= -41
 c6:   t6 - t51 <= -45
 c7:   t7 - t52 <= -49
 c8:   t8 - t53 <= -48
 c9:   t9 - t54 <= -47
 c10:  t10 - t55 <= -55
 c11:  t11 - t56 <= -53
 c12:  t12 - t57 <= -54
 c13:  t13 - t58 <= -45
 c14:  t14 - t59 <= -48
 c15:  t15 - t60 <= -46
 c16:  t16 - t61 <= -50
 c17:  t17 - t62 <= -55
 c18:  t18 - t63 <= -55
 c19:  t19 - t64 <= -44
 c20:  t20 - t65 <= -49
 c21:  t21 - t66 <= -43
 c22:  t22 - t67 <= -45
 c23:  t23 - t68 <= -43
 c24:  t24 - t69 <= -53
 c25:  t25 - t70 <= -42
 c26:  t26 - t71 <= -50
 c27:  t27 - t72 <= -53
 c28:  t28 - t73 <= -45
 c29:  t29 - t74 <= -55
 c30:  t30 - t75 <= -49
 c31:  t31 - t76 <= -52
 c32:  t32 - t77 <= -53
 c33:  t33 - t78 <= -50
 c34:  t34 - t79 <= -55
 c35:  t35 - t80 <= -43
 c36:  t36 - t81 <= -45
 c37:  t37 - t82 <= -42
 c38:  t38 - t83 <= -52
 c39:  t39 - t84 <= -42
 c40:  t40 - t85 <= -55
 c41:  t41 - t86 <= -54
 c42:  t42 - t87 <= -51
 c43:  t43 - t88 <= -46
 c44:  t44 - t89 <= -48
 c45:  t45 - t90 <= -50
 c46:  t46 - t91 <= -43
 c47:  t47 - t92 <= -47
 c48:  t48 - t93 <= -48
 c49:  t49 - t94 <= -47
 c50:  t50 - t95 <= -51
 c51:  t51 - t96 <= -52
 c52:  t52 - t97 <= -56
 c53:  t53 - t98 <= -45
 c54:  t54 - t99 <= -50
 c55:  t55 - t100 <= -49
 c56:  t56 - t101 <= -49
 c57:  t57 - t102 <= -55
 c58:  t58 - t103 <= -50
 c59:  t59 - t104 <= -46
 c60:  t60 - t105 <= -42
 c61:  t61 - t106 <= -54
 c62:  t62 - t107 <= -56
 c63:  t63 - t108 <= -50
 c64:  t64 - t109 <= -56
 c65:  t65 - t110 <= -42
 c66:  t66 - t111 <= -43
 c67:  t67 - t112 <= -53
 c68:  t68 - t113 <= -55
 c69:  t69 - t114 <= -48
 c70:  t70 - t115 <= -53
 c71:  t71 - t116 <= -55
 c72:  t72 - t117 <= -54
 c73:  t73 - t118 <= -52
 c74:  t74 - t119 <= -52
 c75:  t75 - t120 <= -42
 c76:  t76 - t121 <= -51
 c77:  t77 - t122 <= -49
 c78:  t78 - t123 <= -55
 c79:  t79 - t124 <= -55
 c80:  t80 - t125 <= -47
 c81:  t81 - t126 <= -45
 c82:  t82 - t127 <= -53
 c83:  t83 - t128 <= -47
 c84:  t84 - t129 <= -53
 c85:  t85 - t130 <= -55
 c86:  t86 - t131 <= -43
 c87:  t87 - t132 <= -45
 c88:  t88 - t133 <= -56
 c89:  t89 - t134 <= -51
 c90:  t90 - t91  = -39
 c91:  t91 - t92  = -39
 c92:  t93 - t94  = -38
 c93:  t94 - t95  = -48
 c94:  t96 - t97  = -43
 c95:  t97 - t98  = -37
 c96:  t99 - t100  = -41
 c97:  t100 - t101  = -50
 c98:  t102 - t103  = -50
 c99:  t103 - t104  = -43
 c100: t105 - t106  = -40
 c101: t106 - t107  = -44
 c102: t108 - t109  = -47
 c103: t109 - t110  = -37
 c104: t111 - t112  = -41
 c105: t112 - t113  = -49
 c106: t114 - t115  = -44
 c107: t115 - t116  = -39
 c108: t117 - t118  = -45
 c109: t118 - t119  = -44
 c110: t120 - t121  = -40
 c111: t121 - t122  = -43
 c112: t123 - t124  = -45
 c113: t124 - t125  = -48
 c114: t126 - t127  = -41
 c115: t127 - t128  = -45
 c116: t129 - t130  = -40
 c117: t130 - t131  = -38
 c118: t132 - t133  = -49
 c119: t133 - t134  = -38
 c120: t92 - t93 <= -128
 c121: t95 - t96 <= -124
 c122: t98 - t99 <= -117
 c123: t101 - t102 <= -124
 c124: t107 - t108 <= -120
 c125: t110 - t111 <= -124
 c126: t113 - t114 <= -130
 c127: t116 - t117 <= -128
 c128: t122 - t123 <= -117
 c129: t125 - t126 <= -122
 c130: t128 - t129 <= -119
 c131: t131 - t132 <= -119
 c132: t90 - t135 + t150  = 104
 c133: t93 - t136 + t151  = 310
 c134: t96 - t137 + t152  = 520
 c135: t99 - t138 + t153  = 717
 c136: t102 - t139 + t154  = 932
 c137: t105 - t140 + t155  = 88
 c138: t108 - t141 + t156  = 292
 c139: t111 - t142 + t157  = 500
 c140: t114 - t143 + t158  = 720
 c141: t117 - t144 + t159  = 931
 c142: t120 - t145 + t160  = 91
 c143: t123 - t146 + t161  = 291
 c144: t126 - t147 + t162  = 506
 c145: t129 - t148 + t163  = 711
 c146: t132 - t149 + t164  = 908
End
